4
4
4

22

0,4,8,14,4,14,8,18,18
0,4,8,14,4,14,8,18,18
0,4,9,14,4,14,8,18,18
1,5,9,15,5,15,9,18,18

1,5,10,15,5,15,9,19,19
1,5,10,15,5,15,9,19,19
2,6,11,16,6,16,10,19,19
2,6,11,16,6,16,10,19,19

2,6,12,16,6,16,10,20,20
3,7,12,17,7,17,11,20,21
3,4,13,17,7,17,11,20,21
3,7,13,17,7,17,11,20,21